11,1,9,1,1,2,18,3,13,2,10,1,7,2,20,5,14,3,16,3,17,3,8,4,2,4,19,3,6,4,5,4,12,5,15,4,4,5,3,5;1,1,18,1,13,1,7,1,15,1,20,4,2,3,9,3,6,1,17,2,12,1,5,2,4,1,10,5,14,5,19,4,3,3,8,5,16,5,11,5;17,1,14,1,20,1,11,2,9,2,16,2,8,3,19,1,6,2,10,4,13,5,5,3,1,4,12,4,4,4,18,5,3,4,7,5,15,5,2,5;8,1,16,1,3,2,18,2,2,1,20,3,5,1,11,3,13,3,7,3,10,3,14,4,12,2,6,3,17,4,4,2,15,2,1,5,19,5,9,5;3,1,8,2,20,2,14,2,2,2,18,4,10,2,9,4,19,2,13,4,1,3,16,4,7,4,12,3,11,4,17,5,4,3,15,3,6,5,5,5;
